68
125
100	3
99	2
98	1
97	4
96	1
95	3
94	3
93	3
92	4
91	7
90	1
89	2
88	3
87	3
86	1
85	2
84	5
83	3
82	3
80	4
79	1
78	2
77	4
76	7
74	3
72	1
71	3
70	2
69	4
68	3
67	7
65	7
63	2
62	2
61	1
59	2
58	3
57	2
56	4
55	4
54	5
53	3
52	4
51	2
50	2
49	2
48	3
46	4
45	4
44	2
43	3
42	3
41	2
40	2
39	2
38	2
37	2
36	3
35	2
34	2
33	4
32	4
31	4
30	3
29	2
28	1
26	3
25	3
